
(set-logic HORN)
(declare-fun Z_2048 () Int)
(declare-fun S_468 (Int) Int)
(declare-fun diseqInt (Int Int) Bool)
(declare-fun unS_681 (Int Int) Bool)
(declare-fun isZ_435 (Int) Bool)
(declare-fun isS_435 (Int) Bool)
(assert (forall ((x_55317 Int))
	(unS_681 x_55317 (S_468 x_55317))))
(assert (isZ_435 Z_2048))
(assert (forall ((x_55319 Int))
	(isS_435 (S_468 x_55319))))
(assert (forall ((x_55320 Int))
	(diseqInt Z_2048 (S_468 x_55320))))
(assert (forall ((x_55321 Int))
	(diseqInt (S_468 x_55321) Z_2048)))
(assert (forall ((x_55322 Int) (x_55323 Int))
	(=> (diseqInt x_55322 x_55323) (diseqInt (S_468 x_55322) (S_468 x_55323)))))
(declare-fun add_366 (Int Int Int) Bool)
(declare-fun minus_361 (Int Int Int) Bool)
(declare-fun le_340 (Int Int) Bool)
(declare-fun ge_340 (Int Int) Bool)
(declare-fun lt_360 (Int Int) Bool)
(declare-fun gt_343 (Int Int) Bool)
(declare-fun mult_340 (Int Int Int) Bool)
(declare-fun div_340 (Int Int Int) Bool)
(declare-fun mod_342 (Int Int Int) Bool)
(assert (forall ((y_2284 Int))
	(add_366 y_2284 Z_2048 y_2284)))
(assert (forall ((x_55301 Int) (y_2284 Int) (r_413 Int))
	(=> (add_366 r_413 x_55301 y_2284) (add_366 (S_468 r_413) (S_468 x_55301) y_2284))))
(assert (forall ((y_2284 Int))
	(minus_361 Z_2048 Z_2048 y_2284)))
(assert (forall ((x_55301 Int) (y_2284 Int) (r_413 Int))
	(=> (minus_361 r_413 x_55301 y_2284) (minus_361 (S_468 r_413) (S_468 x_55301) y_2284))))
(assert (forall ((y_2284 Int))
	(le_340 Z_2048 y_2284)))
(assert (forall ((x_55301 Int) (y_2284 Int))
	(=> (le_340 x_55301 y_2284) (le_340 (S_468 x_55301) (S_468 y_2284)))))
(assert (forall ((y_2284 Int))
	(ge_340 y_2284 Z_2048)))
(assert (forall ((x_55301 Int) (y_2284 Int))
	(=> (ge_340 x_55301 y_2284) (ge_340 (S_468 x_55301) (S_468 y_2284)))))
(assert (forall ((y_2284 Int))
	(lt_360 Z_2048 (S_468 y_2284))))
(assert (forall ((x_55301 Int) (y_2284 Int))
	(=> (lt_360 x_55301 y_2284) (lt_360 (S_468 x_55301) (S_468 y_2284)))))
(assert (forall ((y_2284 Int))
	(gt_343 (S_468 y_2284) Z_2048)))
(assert (forall ((x_55301 Int) (y_2284 Int))
	(=> (gt_343 x_55301 y_2284) (gt_343 (S_468 x_55301) (S_468 y_2284)))))
(assert (forall ((y_2284 Int))
	(mult_340 Z_2048 Z_2048 y_2284)))
(assert (forall ((x_55301 Int) (y_2284 Int) (r_413 Int) (z_2049 Int))
	(=> (and (mult_340 r_413 x_55301 y_2284) (add_366 z_2049 r_413 y_2284)) (mult_340 z_2049 (S_468 x_55301) y_2284))))
(assert (forall ((x_55301 Int) (y_2284 Int))
	(=> (lt_360 x_55301 y_2284) (div_340 Z_2048 x_55301 y_2284))))
(assert (forall ((x_55301 Int) (y_2284 Int) (r_413 Int) (z_2049 Int))
	(=> (and (ge_340 x_55301 y_2284) (minus_361 z_2049 x_55301 y_2284) (div_340 r_413 z_2049 y_2284)) (div_340 (S_468 r_413) x_55301 y_2284))))
(assert (forall ((x_55301 Int) (y_2284 Int))
	(=> (lt_360 x_55301 y_2284) (mod_342 x_55301 x_55301 y_2284))))
(assert (forall ((x_55301 Int) (y_2284 Int) (r_413 Int) (z_2049 Int))
	(=> (and (ge_340 x_55301 y_2284) (minus_361 z_2049 x_55301 y_2284) (mod_342 r_413 z_2049 y_2284)) (mod_342 r_413 x_55301 y_2284))))
(declare-datatypes ((list_243 0)) (((nil_273) (cons_243 (head_486 Int) (tail_486 list_243)))))
(declare-fun diseqlist_243 (list_243 list_243) Bool)
(declare-fun head_487 (Int list_243) Bool)
(declare-fun tail_487 (list_243 list_243) Bool)
(declare-fun isnil_273 (list_243) Bool)
(declare-fun iscons_243 (list_243) Bool)
(assert (forall ((x_55303 Int) (x_55304 list_243))
	(head_487 x_55303 (cons_243 x_55303 x_55304))))
(assert (forall ((x_55303 Int) (x_55304 list_243))
	(tail_487 x_55304 (cons_243 x_55303 x_55304))))
(assert (isnil_273 nil_273))
(assert (forall ((x_55306 Int) (x_55307 list_243))
	(iscons_243 (cons_243 x_55306 x_55307))))
(assert (forall ((x_55308 Int) (x_55309 list_243))
	(diseqlist_243 nil_273 (cons_243 x_55308 x_55309))))
(assert (forall ((x_55310 Int) (x_55311 list_243))
	(diseqlist_243 (cons_243 x_55310 x_55311) nil_273)))
(assert (forall ((x_55312 Int) (x_55313 list_243) (x_55314 Int) (x_55315 list_243))
	(=> (diseqInt x_55312 x_55314) (diseqlist_243 (cons_243 x_55312 x_55313) (cons_243 x_55314 x_55315)))))
(assert (forall ((x_55312 Int) (x_55313 list_243) (x_55314 Int) (x_55315 list_243))
	(=> (diseqlist_243 x_55313 x_55315) (diseqlist_243 (cons_243 x_55312 x_55313) (cons_243 x_55314 x_55315)))))
(declare-fun x_55287 (list_243 list_243 list_243) Bool)
(assert (forall ((x_55292 list_243) (z_2047 Int) (xs_654 list_243) (y_2282 list_243))
	(=> (x_55287 x_55292 xs_654 y_2282) (x_55287 (cons_243 z_2047 x_55292) (cons_243 z_2047 xs_654) y_2282))))
(assert (forall ((x_55293 list_243))
	(x_55287 x_55293 nil_273 x_55293)))
(declare-fun rev_10 (list_243 list_243) Bool)
(assert (forall ((x_55294 list_243) (x_55295 list_243) (y_2283 Int) (xs_655 list_243))
	(=> (and (rev_10 x_55295 xs_655) (x_55287 x_55294 x_55295 (cons_243 y_2283 nil_273))) (rev_10 x_55294 (cons_243 y_2283 xs_655)))))
(assert (rev_10 nil_273 nil_273))
(assert (forall ((x_55298 list_243) (x_55299 list_243) (x_55300 list_243) (x_55290 list_243))
	(=> (and true (diseqlist_243 x_55300 x_55290) (rev_10 x_55298 x_55290) (x_55287 x_55299 x_55298 nil_273) (rev_10 x_55300 x_55299)) false)))
(check-sat)
